
Gurobi 7.0.2 (mac64, Python) logging started Thu Mar 16 01:20:36 2017


Gurobi 7.0.2 (mac64, Python) logging started Thu Mar 16 20:02:16 2017


Gurobi 7.0.2 (mac64, Python) logging started Sat Mar 18 16:23:30 2017


Gurobi 7.0.2 (mac64, Python) logging started Sat Mar 18 21:12:43 2017

Optimize a model with 4877 rows, 78256 columns and 155552 nonzeros
Coefficient statistics:
  Matrix range     [1e+00, 1e+00]
  Objective range  [6e-05, 5e-01]
  Bounds range     [0e+00, 0e+00]
  RHS range        [3e+02, 3e+05]

Concurrent LP optimizer: dual simplex and barrier
Showing barrier log only...

Presolve removed 0 rows and 480 columns
Presolve time: 0.13s
Presolved: 4877 rows, 77776 columns, 155552 nonzeros

Ordering time: 0.01s

Barrier statistics:
 AA' NZ     : 7.778e+04
 Factor NZ  : 8.318e+04 (roughly 34 MBytes of memory)
 Factor Ops : 1.428e+06 (less than 1 second per iteration)
 Threads    : 1

                  Objective                Residual
Iter       Primal          Dual         Primal    Dual     Compl     Time
   0   1.00817918e+06  0.00000000e+00  1.12e+05 0.00e+00  1.72e+01     0s
   1   4.63465672e+05  1.23896886e+05  0.00e+00 6.17e-02  6.69e+00     0s
   2   3.14273215e+05  1.42947354e+05  0.00e+00 5.17e-02  4.32e+00     0s
   3   1.45333244e+05  9.51881732e+04  0.00e+00 1.09e-02  1.09e+00     0s
   4   1.00568494e+05  9.02385118e+04  0.00e+00 4.41e-03  3.21e-01     0s
   5   9.49304123e+04  8.81345197e+04  0.00e+00 1.86e-03  1.64e-01     0s
   6   9.15355617e+04  8.69133490e+04  0.00e+00 5.92e-04  8.17e-02     1s
   7   8.92286125e+04  8.66232631e+04  0.00e+00 2.18e-04  4.11e-02     1s
   8   8.80056643e+04  8.65525618e+04  0.00e+00 9.67e-05  2.18e-02     1s
   9   8.74279354e+04  8.65417976e+04  0.00e+00 4.33e-05  1.26e-02     1s
  10   8.71933117e+04  8.65356499e+04  0.00e+00 2.35e-05  8.99e-03     1s
  11   8.69780582e+04  8.65337326e+04  0.00e+00 1.68e-05  6.15e-03     1s
  12   8.68356783e+04  8.65325179e+04  0.00e+00 1.12e-05  4.18e-03     1s
  13   8.67275866e+04  8.65303970e+04  0.00e+00 6.39e-06  2.67e-03     1s
  14   8.66733644e+04  8.65282002e+04  0.00e+00 2.52e-06  1.88e-03     1s
  15   8.66210637e+04  8.65278700e+04  0.00e+00 1.85e-06  1.21e-03     1s
  16   8.65760322e+04  8.65277220e+04  0.00e+00 1.09e-06  6.32e-04     1s
  17   8.65474945e+04  8.65274768e+04  0.00e+00 4.32e-07  2.61e-04     1s
  18   8.65328441e+04  8.65273991e+04  0.00e+00 5.11e-08  6.82e-05     1s
  19   8.65281129e+04  8.65273814e+04  0.00e+00 1.36e-08  9.44e-06     1s
  20   8.65274538e+04  8.65274025e+04  0.00e+00 3.40e-10  6.21e-07     1s
  21   8.65274037e+04  8.65274025e+04  0.00e+00 2.23e-11  1.41e-08     1s
  22   8.65274026e+04  8.65274026e+04  6.55e-10 2.25e-11  1.41e-11     1s

Barrier solved model in 22 iterations and 1.08 seconds
Optimal objective 8.65274026e+04

Crossover log...

     114 PPushes remaining with PInf 0.0000000e+00                 1s
       0 PPushes remaining with PInf 0.0000000e+00                 1s

  Push phase complete: Pinf 0.0000000e+00, Dinf 1.3877788e-17      1s

Iteration    Objective       Primal Inf.    Dual Inf.      Time
     117    8.6527403e+04   0.000000e+00   0.000000e+00      1s
     117    8.6527403e+04   0.000000e+00   0.000000e+00      1s

Solved with barrier
Solved in 117 iterations and 1.16 seconds
Optimal objective  8.652740258e+04
Optimize a model with 4877 rows, 78256 columns and 155552 nonzeros
Coefficient statistics:
  Matrix range     [1e+00, 1e+00]
  Objective range  [6e-05, 5e-01]
  Bounds range     [0e+00, 0e+00]
  RHS range        [3e+02, 3e+05]

Concurrent LP optimizer: dual simplex and barrier
Showing barrier log only...

Presolve removed 0 rows and 480 columns
Presolve time: 0.15s
Presolved: 4877 rows, 77776 columns, 155552 nonzeros

Ordering time: 0.00s

Barrier statistics:
 AA' NZ     : 7.778e+04
 Factor NZ  : 8.318e+04 (roughly 34 MBytes of memory)
 Factor Ops : 1.428e+06 (less than 1 second per iteration)
 Threads    : 1

                  Objective                Residual
Iter       Primal          Dual         Primal    Dual     Compl     Time
   0   1.00817918e+06  0.00000000e+00  1.12e+05 0.00e+00  1.72e+01     0s
   1   4.63465672e+05  1.23896886e+05  0.00e+00 6.17e-02  6.69e+00     0s
   2   3.14273215e+05  1.42947354e+05  0.00e+00 5.17e-02  4.32e+00     0s
   3   1.45333244e+05  9.51881732e+04  0.00e+00 1.09e-02  1.09e+00     0s
   4   1.00568494e+05  9.02385118e+04  0.00e+00 4.41e-03  3.21e-01     0s
   5   9.49304123e+04  8.81345197e+04  0.00e+00 1.86e-03  1.64e-01     0s
   6   9.15355617e+04  8.69133490e+04  0.00e+00 5.92e-04  8.17e-02     1s
   7   8.92286125e+04  8.66232631e+04  0.00e+00 2.18e-04  4.11e-02     1s
   8   8.80056643e+04  8.65525618e+04  0.00e+00 9.67e-05  2.18e-02     1s
   9   8.74279354e+04  8.65417976e+04  0.00e+00 4.33e-05  1.26e-02     1s
  10   8.71933117e+04  8.65356499e+04  0.00e+00 2.35e-05  8.99e-03     1s
  11   8.69780582e+04  8.65337326e+04  0.00e+00 1.68e-05  6.15e-03     1s
  12   8.68356783e+04  8.65325179e+04  0.00e+00 1.12e-05  4.18e-03     1s
  13   8.67275866e+04  8.65303970e+04  0.00e+00 6.39e-06  2.67e-03     1s
  14   8.66733644e+04  8.65282002e+04  0.00e+00 2.52e-06  1.88e-03     1s
  15   8.66210637e+04  8.65278700e+04  0.00e+00 1.85e-06  1.21e-03     1s
  16   8.65760322e+04  8.65277220e+04  0.00e+00 1.09e-06  6.32e-04     1s
  17   8.65474945e+04  8.65274768e+04  0.00e+00 4.32e-07  2.61e-04     1s
  18   8.65328441e+04  8.65273991e+04  0.00e+00 5.11e-08  6.82e-05     1s
  19   8.65281129e+04  8.65273814e+04  0.00e+00 1.36e-08  9.44e-06     1s
  20   8.65274538e+04  8.65274025e+04  0.00e+00 3.40e-10  6.21e-07     1s
  21   8.65274037e+04  8.65274025e+04  0.00e+00 2.23e-11  1.41e-08     1s
  22   8.65274026e+04  8.65274026e+04  6.55e-10 2.25e-11  1.41e-11     1s

Barrier solved model in 22 iterations and 1.11 seconds
Optimal objective 8.65274026e+04

Crossover log...

     114 PPushes remaining with PInf 0.0000000e+00                 1s
       0 PPushes remaining with PInf 0.0000000e+00                 1s

  Push phase complete: Pinf 0.0000000e+00, Dinf 1.3877788e-17      1s

Iteration    Objective       Primal Inf.    Dual Inf.      Time
     117    8.6527403e+04   0.000000e+00   0.000000e+00      1s
     117    8.6527403e+04   0.000000e+00   0.000000e+00      1s

Solved with barrier
Solved in 117 iterations and 1.18 seconds
Optimal objective  8.652740258e+04
Optimize a model with 4877 rows, 78256 columns and 155552 nonzeros
Coefficient statistics:
  Matrix range     [1e+00, 1e+00]
  Objective range  [6e-05, 5e-01]
  Bounds range     [0e+00, 0e+00]
  RHS range        [3e+02, 3e+05]

Concurrent LP optimizer: dual simplex and barrier
Showing barrier log only...

Presolve removed 0 rows and 480 columns
Presolve time: 0.16s
Presolved: 4877 rows, 77776 columns, 155552 nonzeros

Ordering time: 0.00s

Barrier statistics:
 AA' NZ     : 7.778e+04
 Factor NZ  : 8.318e+04 (roughly 34 MBytes of memory)
 Factor Ops : 1.428e+06 (less than 1 second per iteration)
 Threads    : 1

                  Objective                Residual
Iter       Primal          Dual         Primal    Dual     Compl     Time
   0   1.00817918e+06  0.00000000e+00  1.12e+05 0.00e+00  1.72e+01     0s
   1   4.63465672e+05  1.23896886e+05  0.00e+00 6.17e-02  6.69e+00     0s
   2   3.14273215e+05  1.42947354e+05  0.00e+00 5.17e-02  4.32e+00     0s
   3   1.45333244e+05  9.51881732e+04  0.00e+00 1.09e-02  1.09e+00     0s
   4   1.00568494e+05  9.02385118e+04  0.00e+00 4.41e-03  3.21e-01     0s
   5   9.49304123e+04  8.81345197e+04  0.00e+00 1.86e-03  1.64e-01     0s
   6   9.15355617e+04  8.69133490e+04  0.00e+00 5.92e-04  8.17e-02     1s
   7   8.92286125e+04  8.66232631e+04  0.00e+00 2.18e-04  4.11e-02     1s
   8   8.80056643e+04  8.65525618e+04  0.00e+00 9.67e-05  2.18e-02     1s
   9   8.74279354e+04  8.65417976e+04  0.00e+00 4.33e-05  1.26e-02     1s
  10   8.71933117e+04  8.65356499e+04  0.00e+00 2.35e-05  8.99e-03     1s
  11   8.69780582e+04  8.65337326e+04  0.00e+00 1.68e-05  6.15e-03     1s
  12   8.68356783e+04  8.65325179e+04  0.00e+00 1.12e-05  4.18e-03     1s
  13   8.67275866e+04  8.65303970e+04  0.00e+00 6.39e-06  2.67e-03     1s
  14   8.66733644e+04  8.65282002e+04  0.00e+00 2.52e-06  1.88e-03     1s
  15   8.66210637e+04  8.65278700e+04  0.00e+00 1.85e-06  1.21e-03     1s
  16   8.65760322e+04  8.65277220e+04  0.00e+00 1.09e-06  6.32e-04     1s
  17   8.65474945e+04  8.65274768e+04  0.00e+00 4.32e-07  2.61e-04     1s
  18   8.65328441e+04  8.65273991e+04  0.00e+00 5.11e-08  6.82e-05     1s
  19   8.65281129e+04  8.65273814e+04  0.00e+00 1.36e-08  9.44e-06     1s
  20   8.65274538e+04  8.65274025e+04  0.00e+00 3.40e-10  6.21e-07     1s
  21   8.65274037e+04  8.65274025e+04  0.00e+00 2.23e-11  1.41e-08     1s
  22   8.65274026e+04  8.65274026e+04  6.55e-10 2.25e-11  1.41e-11     1s

Barrier solved model in 22 iterations and 1.12 seconds
Optimal objective 8.65274026e+04

Crossover log...

     114 PPushes remaining with PInf 0.0000000e+00                 1s
       0 PPushes remaining with PInf 0.0000000e+00                 1s

  Push phase complete: Pinf 0.0000000e+00, Dinf 1.3877788e-17      1s

Iteration    Objective       Primal Inf.    Dual Inf.      Time
     117    8.6527403e+04   0.000000e+00   0.000000e+00      1s
     117    8.6527403e+04   0.000000e+00   0.000000e+00      1s

Solved with barrier
Solved in 117 iterations and 1.18 seconds
Optimal objective  8.652740258e+04
Optimize a model with 4877 rows, 78256 columns and 155552 nonzeros
Coefficient statistics:
  Matrix range     [1e+00, 1e+00]
  Objective range  [6e-05, 5e-01]
  Bounds range     [0e+00, 0e+00]
  RHS range        [3e+02, 3e+05]

Concurrent LP optimizer: dual simplex and barrier
Showing barrier log only...

Presolve removed 0 rows and 480 columns
Presolve time: 0.14s
Presolved: 4877 rows, 77776 columns, 155552 nonzeros

Ordering time: 0.00s

Barrier statistics:
 AA' NZ     : 7.778e+04
 Factor NZ  : 8.318e+04 (roughly 34 MBytes of memory)
 Factor Ops : 1.428e+06 (less than 1 second per iteration)
 Threads    : 1

                  Objective                Residual
Iter       Primal          Dual         Primal    Dual     Compl     Time
   0   1.00817918e+06  0.00000000e+00  1.12e+05 0.00e+00  1.72e+01     0s
   1   4.63465672e+05  1.23896886e+05  0.00e+00 6.17e-02  6.69e+00     0s
   2   3.14273215e+05  1.42947354e+05  0.00e+00 5.17e-02  4.32e+00     0s
   3   1.45333244e+05  9.51881732e+04  0.00e+00 1.09e-02  1.09e+00     0s
   4   1.00568494e+05  9.02385118e+04  0.00e+00 4.41e-03  3.21e-01     0s
   5   9.49304123e+04  8.81345197e+04  0.00e+00 1.86e-03  1.64e-01     0s
   6   9.15355617e+04  8.69133490e+04  0.00e+00 5.92e-04  8.17e-02     0s
   7   8.92286125e+04  8.66232631e+04  0.00e+00 2.18e-04  4.11e-02     1s
   8   8.80056643e+04  8.65525618e+04  0.00e+00 9.67e-05  2.18e-02     1s
   9   8.74279354e+04  8.65417976e+04  0.00e+00 4.33e-05  1.26e-02     1s
  10   8.71933117e+04  8.65356499e+04  0.00e+00 2.35e-05  8.99e-03     1s
  11   8.69780582e+04  8.65337326e+04  0.00e+00 1.68e-05  6.15e-03     1s
  12   8.68356783e+04  8.65325179e+04  0.00e+00 1.12e-05  4.18e-03     1s
  13   8.67275866e+04  8.65303970e+04  0.00e+00 6.39e-06  2.67e-03     1s
  14   8.66733644e+04  8.65282002e+04  0.00e+00 2.52e-06  1.88e-03     1s
  15   8.66210637e+04  8.65278700e+04  0.00e+00 1.85e-06  1.21e-03     1s
  16   8.65760322e+04  8.65277220e+04  0.00e+00 1.09e-06  6.32e-04     1s
  17   8.65474945e+04  8.65274768e+04  0.00e+00 4.32e-07  2.61e-04     1s
  18   8.65328441e+04  8.65273991e+04  0.00e+00 5.11e-08  6.82e-05     1s
  19   8.65281129e+04  8.65273814e+04  0.00e+00 1.36e-08  9.44e-06     1s
  20   8.65274538e+04  8.65274025e+04  0.00e+00 3.40e-10  6.21e-07     1s
  21   8.65274037e+04  8.65274025e+04  0.00e+00 2.23e-11  1.41e-08     1s
  22   8.65274026e+04  8.65274026e+04  6.55e-10 2.25e-11  1.41e-11     1s

Barrier solved model in 22 iterations and 1.12 seconds
Optimal objective 8.65274026e+04

Crossover log...

     114 PPushes remaining with PInf 0.0000000e+00                 1s
       0 PPushes remaining with PInf 0.0000000e+00                 1s

  Push phase complete: Pinf 0.0000000e+00, Dinf 1.3877788e-17      1s

Iteration    Objective       Primal Inf.    Dual Inf.      Time
     117    8.6527403e+04   0.000000e+00   0.000000e+00      1s
     117    8.6527403e+04   0.000000e+00   0.000000e+00      1s

Solved with barrier
Solved in 117 iterations and 1.21 seconds
Optimal objective  8.652740258e+04
Optimize a model with 4877 rows, 78256 columns and 155552 nonzeros
Coefficient statistics:
  Matrix range     [1e+00, 1e+00]
  Objective range  [6e-05, 5e-01]
  Bounds range     [0e+00, 0e+00]
  RHS range        [3e+02, 3e+05]

Concurrent LP optimizer: dual simplex and barrier
Showing barrier log only...

Presolve removed 0 rows and 480 columns
Presolve time: 0.12s
Presolved: 4877 rows, 77776 columns, 155552 nonzeros

Ordering time: 0.00s

Barrier statistics:
 AA' NZ     : 7.778e+04
 Factor NZ  : 8.318e+04 (roughly 34 MBytes of memory)
 Factor Ops : 1.428e+06 (less than 1 second per iteration)
 Threads    : 1

                  Objective                Residual
Iter       Primal          Dual         Primal    Dual     Compl     Time
   0   1.00817918e+06  0.00000000e+00  1.12e+05 0.00e+00  1.72e+01     0s
   1   4.63465672e+05  1.23896886e+05  0.00e+00 6.17e-02  6.69e+00     0s
   2   3.14273215e+05  1.42947354e+05  0.00e+00 5.17e-02  4.32e+00     0s
   3   1.45333244e+05  9.51881732e+04  0.00e+00 1.09e-02  1.09e+00     0s
   4   1.00568494e+05  9.02385118e+04  0.00e+00 4.41e-03  3.21e-01     0s
   5   9.49304123e+04  8.81345197e+04  0.00e+00 1.86e-03  1.64e-01     0s
   6   9.15355617e+04  8.69133490e+04  0.00e+00 5.92e-04  8.17e-02     0s
   7   8.92286125e+04  8.66232631e+04  0.00e+00 2.18e-04  4.11e-02     1s
   8   8.80056643e+04  8.65525618e+04  0.00e+00 9.67e-05  2.18e-02     1s
   9   8.74279354e+04  8.65417976e+04  0.00e+00 4.33e-05  1.26e-02     1s
  10   8.71933117e+04  8.65356499e+04  0.00e+00 2.35e-05  8.99e-03     1s
  11   8.69780582e+04  8.65337326e+04  0.00e+00 1.68e-05  6.15e-03     1s
  12   8.68356783e+04  8.65325179e+04  0.00e+00 1.12e-05  4.18e-03     1s
  13   8.67275866e+04  8.65303970e+04  0.00e+00 6.39e-06  2.67e-03     1s
  14   8.66733644e+04  8.65282002e+04  0.00e+00 2.52e-06  1.88e-03     1s
  15   8.66210637e+04  8.65278700e+04  0.00e+00 1.85e-06  1.21e-03     1s
  16   8.65760322e+04  8.65277220e+04  0.00e+00 1.09e-06  6.32e-04     1s
  17   8.65474945e+04  8.65274768e+04  0.00e+00 4.32e-07  2.61e-04     1s
  18   8.65328441e+04  8.65273991e+04  0.00e+00 5.11e-08  6.82e-05     1s
  19   8.65281129e+04  8.65273814e+04  0.00e+00 1.36e-08  9.44e-06     1s
  20   8.65274538e+04  8.65274025e+04  0.00e+00 3.40e-10  6.21e-07     1s
  21   8.65274037e+04  8.65274025e+04  0.00e+00 2.23e-11  1.41e-08     1s
  22   8.65274026e+04  8.65274026e+04  6.55e-10 2.25e-11  1.41e-11     1s

Barrier solved model in 22 iterations and 1.07 seconds
Optimal objective 8.65274026e+04

Crossover log...

     114 PPushes remaining with PInf 0.0000000e+00                 1s
       0 PPushes remaining with PInf 0.0000000e+00                 1s

  Push phase complete: Pinf 0.0000000e+00, Dinf 1.3877788e-17      1s

Iteration    Objective       Primal Inf.    Dual Inf.      Time
     117    8.6527403e+04   0.000000e+00   0.000000e+00      1s
     117    8.6527403e+04   0.000000e+00   0.000000e+00      1s

Solved with barrier
Solved in 117 iterations and 1.14 seconds
Optimal objective  8.652740258e+04
Optimize a model with 4877 rows, 78256 columns and 155552 nonzeros
Coefficient statistics:
  Matrix range     [1e+00, 1e+00]
  Objective range  [6e-05, 5e-01]
  Bounds range     [0e+00, 0e+00]
  RHS range        [3e+02, 3e+05]

Concurrent LP optimizer: dual simplex and barrier
Showing barrier log only...

Presolve removed 0 rows and 480 columns
Presolve time: 0.14s
Presolved: 4877 rows, 77776 columns, 155552 nonzeros

Ordering time: 0.00s

Barrier statistics:
 AA' NZ     : 7.778e+04
 Factor NZ  : 8.318e+04 (roughly 34 MBytes of memory)
 Factor Ops : 1.428e+06 (less than 1 second per iteration)
 Threads    : 1

                  Objective                Residual
Iter       Primal          Dual         Primal    Dual     Compl     Time
   0   1.00817918e+06  0.00000000e+00  1.12e+05 0.00e+00  1.72e+01     0s
   1   4.63465672e+05  1.23896886e+05  0.00e+00 6.17e-02  6.69e+00     0s
   2   3.14273215e+05  1.42947354e+05  0.00e+00 5.17e-02  4.32e+00     0s
   3   1.45333244e+05  9.51881732e+04  0.00e+00 1.09e-02  1.09e+00     0s
   4   1.00568494e+05  9.02385118e+04  0.00e+00 4.41e-03  3.21e-01     0s
   5   9.49304123e+04  8.81345197e+04  0.00e+00 1.86e-03  1.64e-01     0s
   6   9.15355617e+04  8.69133490e+04  0.00e+00 5.92e-04  8.17e-02     0s
   7   8.92286125e+04  8.66232631e+04  0.00e+00 2.18e-04  4.11e-02     1s
   8   8.80056643e+04  8.65525618e+04  0.00e+00 9.67e-05  2.18e-02     1s
   9   8.74279354e+04  8.65417976e+04  0.00e+00 4.33e-05  1.26e-02     1s
  10   8.71933117e+04  8.65356499e+04  0.00e+00 2.35e-05  8.99e-03     1s
  11   8.69780582e+04  8.65337326e+04  0.00e+00 1.68e-05  6.15e-03     1s
  12   8.68356783e+04  8.65325179e+04  0.00e+00 1.12e-05  4.18e-03     1s
  13   8.67275866e+04  8.65303970e+04  0.00e+00 6.39e-06  2.67e-03     1s
  14   8.66733644e+04  8.65282002e+04  0.00e+00 2.52e-06  1.88e-03     1s
  15   8.66210637e+04  8.65278700e+04  0.00e+00 1.85e-06  1.21e-03     1s
  16   8.65760322e+04  8.65277220e+04  0.00e+00 1.09e-06  6.32e-04     1s
  17   8.65474945e+04  8.65274768e+04  0.00e+00 4.32e-07  2.61e-04     1s
  18   8.65328441e+04  8.65273991e+04  0.00e+00 5.11e-08  6.82e-05     1s
  19   8.65281129e+04  8.65273814e+04  0.00e+00 1.36e-08  9.44e-06     1s
  20   8.65274538e+04  8.65274025e+04  0.00e+00 3.40e-10  6.21e-07     1s
  21   8.65274037e+04  8.65274025e+04  0.00e+00 2.23e-11  1.41e-08     1s
  22   8.65274026e+04  8.65274026e+04  6.55e-10 2.25e-11  1.41e-11     1s

Barrier solved model in 22 iterations and 1.06 seconds
Optimal objective 8.65274026e+04

Crossover log...

     114 PPushes remaining with PInf 0.0000000e+00                 1s
       0 PPushes remaining with PInf 0.0000000e+00                 1s

  Push phase complete: Pinf 0.0000000e+00, Dinf 1.3877788e-17      1s

Iteration    Objective       Primal Inf.    Dual Inf.      Time
     117    8.6527403e+04   0.000000e+00   0.000000e+00      1s
     117    8.6527403e+04   0.000000e+00   0.000000e+00      1s

Solved with barrier
Solved in 117 iterations and 1.13 seconds
Optimal objective  8.652740258e+04
Optimize a model with 4877 rows, 78256 columns and 155552 nonzeros
Coefficient statistics:
  Matrix range     [1e+00, 1e+00]
  Objective range  [6e-05, 5e-01]
  Bounds range     [0e+00, 0e+00]
  RHS range        [3e+02, 3e+05]

Concurrent LP optimizer: dual simplex and barrier
Showing barrier log only...

Presolve removed 0 rows and 480 columns
Presolve time: 0.14s
Presolved: 4877 rows, 77776 columns, 155552 nonzeros

Ordering time: 0.00s

Barrier statistics:
 AA' NZ     : 7.778e+04
 Factor NZ  : 8.318e+04 (roughly 34 MBytes of memory)
 Factor Ops : 1.428e+06 (less than 1 second per iteration)
 Threads    : 1

                  Objective                Residual
Iter       Primal          Dual         Primal    Dual     Compl     Time
   0   1.00817918e+06  0.00000000e+00  1.12e+05 0.00e+00  1.72e+01     0s
   1   4.63465672e+05  1.23896886e+05  0.00e+00 6.17e-02  6.69e+00     0s
   2   3.14273215e+05  1.42947354e+05  0.00e+00 5.17e-02  4.32e+00     0s
   3   1.45333244e+05  9.51881732e+04  0.00e+00 1.09e-02  1.09e+00     0s
   4   1.00568494e+05  9.02385118e+04  0.00e+00 4.41e-03  3.21e-01     0s
   5   9.49304123e+04  8.81345197e+04  0.00e+00 1.86e-03  1.64e-01     0s
   6   9.15355617e+04  8.69133490e+04  0.00e+00 5.92e-04  8.17e-02     1s
   7   8.92286125e+04  8.66232631e+04  0.00e+00 2.18e-04  4.11e-02     1s
   8   8.80056643e+04  8.65525618e+04  0.00e+00 9.67e-05  2.18e-02     1s
   9   8.74279354e+04  8.65417976e+04  0.00e+00 4.33e-05  1.26e-02     1s
  10   8.71933117e+04  8.65356499e+04  0.00e+00 2.35e-05  8.99e-03     1s
  11   8.69780582e+04  8.65337326e+04  0.00e+00 1.68e-05  6.15e-03     1s
  12   8.68356783e+04  8.65325179e+04  0.00e+00 1.12e-05  4.18e-03     1s
  13   8.67275866e+04  8.65303970e+04  0.00e+00 6.39e-06  2.67e-03     1s
  14   8.66733644e+04  8.65282002e+04  0.00e+00 2.52e-06  1.88e-03     1s
  15   8.66210637e+04  8.65278700e+04  0.00e+00 1.85e-06  1.21e-03     1s
  16   8.65760322e+04  8.65277220e+04  0.00e+00 1.09e-06  6.32e-04     1s
  17   8.65474945e+04  8.65274768e+04  0.00e+00 4.32e-07  2.61e-04     1s
  18   8.65328441e+04  8.65273991e+04  0.00e+00 5.11e-08  6.82e-05     1s
  19   8.65281129e+04  8.65273814e+04  0.00e+00 1.36e-08  9.44e-06     1s
  20   8.65274538e+04  8.65274025e+04  0.00e+00 3.40e-10  6.21e-07     1s
  21   8.65274037e+04  8.65274025e+04  0.00e+00 2.23e-11  1.41e-08     1s
  22   8.65274026e+04  8.65274026e+04  6.55e-10 2.25e-11  1.41e-11     1s

Barrier solved model in 22 iterations and 1.11 seconds
Optimal objective 8.65274026e+04

Crossover log...

     114 PPushes remaining with PInf 0.0000000e+00                 1s
       0 PPushes remaining with PInf 0.0000000e+00                 1s

  Push phase complete: Pinf 0.0000000e+00, Dinf 1.3877788e-17      1s

Iteration    Objective       Primal Inf.    Dual Inf.      Time
     117    8.6527403e+04   0.000000e+00   0.000000e+00      1s
     117    8.6527403e+04   0.000000e+00   0.000000e+00      1s

Solved with barrier
Solved in 117 iterations and 1.18 seconds
Optimal objective  8.652740258e+04
Optimize a model with 4877 rows, 78256 columns and 155552 nonzeros
Coefficient statistics:
  Matrix range     [1e+00, 1e+00]
  Objective range  [6e-05, 5e-01]
  Bounds range     [0e+00, 0e+00]
  RHS range        [3e+02, 3e+05]

Concurrent LP optimizer: dual simplex and barrier
Showing barrier log only...

Presolve removed 0 rows and 480 columns
Presolve time: 0.13s
Presolved: 4877 rows, 77776 columns, 155552 nonzeros

Ordering time: 0.01s

Barrier statistics:
 AA' NZ     : 7.778e+04
 Factor NZ  : 8.318e+04 (roughly 34 MBytes of memory)
 Factor Ops : 1.428e+06 (less than 1 second per iteration)
 Threads    : 1

                  Objective                Residual
Iter       Primal          Dual         Primal    Dual     Compl     Time
   0   1.00817918e+06  0.00000000e+00  1.12e+05 0.00e+00  1.72e+01     0s
   1   4.63465672e+05  1.23896886e+05  0.00e+00 6.17e-02  6.69e+00     0s
   2   3.14273215e+05  1.42947354e+05  0.00e+00 5.17e-02  4.32e+00     0s
   3   1.45333244e+05  9.51881732e+04  0.00e+00 1.09e-02  1.09e+00     0s
   4   1.00568494e+05  9.02385118e+04  0.00e+00 4.41e-03  3.21e-01     0s
   5   9.49304123e+04  8.81345197e+04  0.00e+00 1.86e-03  1.64e-01     0s
   6   9.15355617e+04  8.69133490e+04  0.00e+00 5.92e-04  8.17e-02     1s
   7   8.92286125e+04  8.66232631e+04  0.00e+00 2.18e-04  4.11e-02     1s
   8   8.80056643e+04  8.65525618e+04  0.00e+00 9.67e-05  2.18e-02     1s
   9   8.74279354e+04  8.65417976e+04  0.00e+00 4.33e-05  1.26e-02     1s
  10   8.71933117e+04  8.65356499e+04  0.00e+00 2.35e-05  8.99e-03     1s
  11   8.69780582e+04  8.65337326e+04  0.00e+00 1.68e-05  6.15e-03     1s
  12   8.68356783e+04  8.65325179e+04  0.00e+00 1.12e-05  4.18e-03     1s
  13   8.67275866e+04  8.65303970e+04  0.00e+00 6.39e-06  2.67e-03     1s
  14   8.66733644e+04  8.65282002e+04  0.00e+00 2.52e-06  1.88e-03     1s
  15   8.66210637e+04  8.65278700e+04  0.00e+00 1.85e-06  1.21e-03     1s
  16   8.65760322e+04  8.65277220e+04  0.00e+00 1.09e-06  6.32e-04     1s
  17   8.65474945e+04  8.65274768e+04  0.00e+00 4.32e-07  2.61e-04     1s
  18   8.65328441e+04  8.65273991e+04  0.00e+00 5.11e-08  6.82e-05     1s
  19   8.65281129e+04  8.65273814e+04  0.00e+00 1.36e-08  9.44e-06     1s
  20   8.65274538e+04  8.65274025e+04  0.00e+00 3.40e-10  6.21e-07     1s
  21   8.65274037e+04  8.65274025e+04  0.00e+00 2.23e-11  1.41e-08     1s
  22   8.65274026e+04  8.65274026e+04  6.55e-10 2.25e-11  1.41e-11     1s

Barrier solved model in 22 iterations and 1.14 seconds
Optimal objective 8.65274026e+04

Crossover log...

     114 PPushes remaining with PInf 0.0000000e+00                 1s
       0 PPushes remaining with PInf 0.0000000e+00                 1s

  Push phase complete: Pinf 0.0000000e+00, Dinf 1.3877788e-17      1s

Iteration    Objective       Primal Inf.    Dual Inf.      Time
     117    8.6527403e+04   0.000000e+00   0.000000e+00      1s
     117    8.6527403e+04   0.000000e+00   0.000000e+00      1s

Solved with barrier
Solved in 117 iterations and 1.22 seconds
Optimal objective  8.652740258e+04

Gurobi 7.0.2 (mac64, Python) logging started Tue Mar 21 19:29:38 2017

Optimize a model with 4877 rows, 78256 columns and 155552 nonzeros
Coefficient statistics:
  Matrix range     [1e+00, 1e+00]
  Objective range  [6e-05, 5e-01]
  Bounds range     [0e+00, 0e+00]
  RHS range        [3e+02, 3e+05]

Concurrent LP optimizer: dual simplex and barrier
Showing barrier log only...

Presolve removed 0 rows and 480 columns
Presolve time: 0.12s
Presolved: 4877 rows, 77776 columns, 155552 nonzeros

Ordering time: 0.01s

Barrier statistics:
 AA' NZ     : 7.778e+04
 Factor NZ  : 8.318e+04 (roughly 34 MBytes of memory)
 Factor Ops : 1.428e+06 (less than 1 second per iteration)
 Threads    : 1

                  Objective                Residual
Iter       Primal          Dual         Primal    Dual     Compl     Time
   0   1.00817918e+06  0.00000000e+00  1.12e+05 0.00e+00  1.72e+01     0s
   1   4.63465672e+05  1.23896886e+05  0.00e+00 6.17e-02  6.69e+00     0s
   2   3.14273215e+05  1.42947354e+05  0.00e+00 5.17e-02  4.32e+00     0s
   3   1.45333244e+05  9.51881732e+04  0.00e+00 1.09e-02  1.09e+00     0s
   4   1.00568494e+05  9.02385118e+04  0.00e+00 4.41e-03  3.21e-01     0s
   5   9.49304123e+04  8.81345197e+04  0.00e+00 1.86e-03  1.64e-01     0s
   6   9.15355617e+04  8.69133490e+04  0.00e+00 5.92e-04  8.17e-02     0s
   7   8.92286125e+04  8.66232631e+04  0.00e+00 2.18e-04  4.11e-02     1s
   8   8.80056643e+04  8.65525618e+04  0.00e+00 9.67e-05  2.18e-02     1s
   9   8.74279354e+04  8.65417976e+04  0.00e+00 4.33e-05  1.26e-02     1s
  10   8.71933117e+04  8.65356499e+04  0.00e+00 2.35e-05  8.99e-03     1s
  11   8.69780582e+04  8.65337326e+04  0.00e+00 1.68e-05  6.15e-03     1s
  12   8.68356783e+04  8.65325179e+04  0.00e+00 1.12e-05  4.18e-03     1s
  13   8.67275866e+04  8.65303970e+04  0.00e+00 6.39e-06  2.67e-03     1s
  14   8.66733644e+04  8.65282002e+04  0.00e+00 2.52e-06  1.88e-03     1s
  15   8.66210637e+04  8.65278700e+04  0.00e+00 1.85e-06  1.21e-03     1s
  16   8.65760322e+04  8.65277220e+04  0.00e+00 1.09e-06  6.32e-04     1s
  17   8.65474945e+04  8.65274768e+04  0.00e+00 4.32e-07  2.61e-04     1s
  18   8.65328441e+04  8.65273991e+04  0.00e+00 5.11e-08  6.82e-05     1s
  19   8.65281129e+04  8.65273814e+04  0.00e+00 1.36e-08  9.44e-06     1s
  20   8.65274538e+04  8.65274025e+04  0.00e+00 3.40e-10  6.21e-07     1s
  21   8.65274037e+04  8.65274025e+04  0.00e+00 2.23e-11  1.41e-08     1s
  22   8.65274026e+04  8.65274026e+04  6.55e-10 2.25e-11  1.41e-11     1s

Barrier solved model in 22 iterations and 1.16 seconds
Optimal objective 8.65274026e+04

Crossover log...

     114 PPushes remaining with PInf 0.0000000e+00                 1s
       0 PPushes remaining with PInf 0.0000000e+00                 1s

  Push phase complete: Pinf 0.0000000e+00, Dinf 1.3877788e-17      1s

Iteration    Objective       Primal Inf.    Dual Inf.      Time
     117    8.6527403e+04   0.000000e+00   0.000000e+00      1s
     117    8.6527403e+04   0.000000e+00   0.000000e+00      1s

Solved with barrier
Solved in 117 iterations and 1.25 seconds
Optimal objective  8.652740258e+04
